
Gurobi 10.0.0 (win64) logging started Thu Jun 13 14:21:52 2024

Set parameter LogFile to value "C:\Users\ealvarezq\Documents\GitHub\Comillas\Models\JointResearch\05. Models\06.Benchmarking\K.Investments_per_hour\RTS24_mod2_ByStages_nc70/openStarNet_RTS24_mod2_ByStages_nc70.log"
Set parameter Method to value 2
Set parameter MIPFocus to value 1
Set parameter Presolve to value 2
Set parameter RINS to value 100
Set parameter MIPGap to value 0.01
Set parameter Threads to value 9
Set parameter TimeLimit to value 259200
Set parameter IterationLimit to value 760000000
Gurobi Optimizer version 10.0.0 build v10.0.0rc2 (win64)

CPU model: Intel(R) Core(TM) i7-8700 CPU @ 3.20GHz, instruction set [SSE2|AVX|AVX2]
Thread count: 6 physical cores, 12 logical processors, using up to 9 threads

Optimize a model with 24853 rows, 16766 columns and 67683 nonzeros
Model fingerprint: 0xb38f9f5e
Variable types: 16745 continuous, 21 integer (21 binary)
Coefficient statistics:
  Matrix range     [1e-03, 2e+03]
  Objective range  [1e+00, 1e+00]
  Bounds range     [5e-05, 2e+00]
  RHS range        [5e-05, 2e+00]
Presolve removed 14791 rows and 8492 columns
Presolve time: 0.12s
Presolved: 10062 rows, 8274 columns, 36302 nonzeros
Variable types: 8253 continuous, 21 integer (21 binary)
Found heuristic solution: objective 99.8191987
Root relaxation presolved: 10062 rows, 8274 columns, 36302 nonzeros

Root barrier log...

Ordering time: 0.00s

Barrier statistics:
 Dense cols : 21
 AA' NZ     : 6.744e+04
 Factor NZ  : 1.933e+05 (roughly 9 MB of memory)
 Factor Ops : 3.962e+06 (less than 1 second per iteration)
 Threads    : 9

                  Objective                Residual
Iter       Primal          Dual         Primal    Dual     Compl     Time
   0   6.44073353e+05 -2.97550146e+08  5.23e+00 1.09e+03  3.55e+04     0s
   1   8.59352864e+04 -7.61475436e+07  6.55e-01 1.99e-08  4.83e+03     0s
   2   2.94043856e+04 -1.11158417e+07  1.48e-01 5.59e-09  6.02e+02     0s
   3   1.49990703e+04 -9.71660319e+05  6.45e-03 1.99e-10  4.31e+01     0s
   4   9.76512881e+03 -9.24836931e+04  4.33e-13 1.60e-10  4.36e+00     0s
   5   3.30993172e+03 -2.59494623e+04  3.29e-13 4.55e-11  1.25e+00     0s
   6   7.73738526e+02 -6.84435448e+03  2.76e-13 1.27e-11  3.25e-01     0s
   7   2.67596466e+02 -2.08088915e+03  1.43e-13 5.69e-12  1.00e-01     0s
   8   1.96889143e+02 -4.83347407e+02  1.27e-13 1.57e-12  2.90e-02     0s
   9   1.26081144e+02 -1.50650238e+02  1.48e-13 4.48e-12  1.18e-02     0s
  10   8.99221343e+01 -3.37957660e+01  2.24e-13 8.25e-12  5.28e-03     0s
  11   7.37538670e+01  4.74957379e+00  2.13e-13 2.30e-12  2.94e-03     0s
  12   6.39333035e+01  2.80670686e+01  3.21e-13 1.65e-12  1.53e-03     0s
  13   5.68744364e+01  3.71848404e+01  3.31e-13 1.91e-12  8.40e-04     0s
  14   5.43748962e+01  4.31175191e+01  5.70e-13 5.22e-12  4.80e-04     0s
  15   5.22749323e+01  4.64611845e+01  1.50e-12 2.61e-12  2.48e-04     0s
  16   5.10749822e+01  4.78745219e+01  2.48e-12 4.36e-12  1.37e-04     0s
  17   4.99424006e+01  4.84279254e+01  1.76e-11 2.73e-12  6.46e-05     0s
  18   4.97985931e+01  4.85362924e+01  1.29e-11 1.64e-12  5.39e-05     0s
  19   4.95743166e+01  4.86687970e+01  2.38e-11 3.13e-12  3.86e-05     0s
  20   4.93941833e+01  4.89117592e+01  1.71e-11 2.69e-12  2.06e-05     0s
  21   4.93296138e+01  4.90697825e+01  7.59e-12 2.09e-12  1.11e-05     0s
  22   4.92760243e+01  4.92112703e+01  9.32e-12 3.50e-12  2.76e-06     0s
  23   4.92613026e+01  4.92323881e+01  1.04e-10 3.10e-12  1.23e-06     0s
  24   4.92458325e+01  4.92398124e+01  9.86e-10 2.36e-12  2.57e-07     0s
  25   4.92425119e+01  4.92411205e+01  5.96e-10 2.75e-12  5.94e-08     0s
  26   4.92421305e+01  4.92418173e+01  9.49e-10 2.21e-12  1.34e-08     0s
  27   4.92420876e+01  4.92419930e+01  1.11e-09 2.99e-12  4.04e-09     0s
  28   4.92420827e+01  4.92420542e+01  3.00e-09 1.96e-12  1.21e-09     0s
  29   4.92420822e+01  4.92420819e+01  2.28e-09 5.88e-12  1.22e-11     0s

Barrier solved model in 29 iterations and 0.38 seconds (0.41 work units)
Optimal objective 4.92420822e+01


Root relaxation: objective 4.924208e+01, 1335 iterations, 0.24 seconds (0.19 work units)

    Nodes    |    Current Node    |     Objective Bounds      |     Work
 Expl Unexpl |  Obj  Depth IntInf | Incumbent    BestBd   Gap | It/Node Time

     0     0   49.24208    0   17   99.81920   49.24208  50.7%     -    0s
     0     0   50.49806    0   15   99.81920   50.49806  49.4%     -    1s
H    0     0                      95.6819555   50.49806  47.2%     -    1s
H    0     0                      89.4045943   50.50038  43.5%     -    1s
     0     0   50.51425    0   15   89.40459   50.51425  43.5%     -    1s
H    0     0                      85.7690164   50.72049  40.9%     -    1s
     0     0   50.72049    0   13   85.76902   50.72049  40.9%     -    1s
     0     0   50.76262    0   13   85.76902   50.76262  40.8%     -    1s
     0     0   50.76327    0   13   85.76902   50.76327  40.8%     -    1s
H    0     0                      79.9687201   50.91680  36.3%     -    1s
     0     0   51.05041    0   15   79.96872   51.05041  36.2%     -    1s
     0     0   51.17823    0   14   79.96872   51.17823  36.0%     -    1s
     0     0   51.17823    0   13   79.96872   51.17823  36.0%     -    1s
     0     0   51.26287    0   14   79.96872   51.26287  35.9%     -    2s
     0     0   51.26287    0   14   79.96872   51.26287  35.9%     -    2s
     0     0   51.26287    0   14   79.96872   51.26287  35.9%     -    2s
H    0     0                      75.3151741   51.83139  31.2%     -    2s
     0     0   51.83955    0   14   75.31517   51.83955  31.2%     -    2s
     0     0   51.97188    0   12   75.31517   51.97188  31.0%     -    2s
     0     0   51.97188    0   12   75.31517   51.97188  31.0%     -    2s
     0     0   51.97188    0   12   75.31517   51.97188  31.0%     -    2s
     0     0   52.14024    0   12   75.31517   52.14024  30.8%     -    2s
     0     0   52.14024    0   15   75.31517   52.14024  30.8%     -    2s
H    0     0                      68.6667186   52.14024  24.1%     -   15s
     0     2   52.14024    0   15   68.66672   52.14024  24.1%     -   15s
    96    94   66.07288    9   11   68.66672   53.44047  22.2%   532   20s
H   97    94                      68.6421682   53.44047  22.1%   527   20s
H   99    94                      68.4970629   53.44047  22.0%   542   20s
H  104    94                      68.3818496   53.44047  21.8%   529   20s
   300   162   64.05169    9   12   68.38185   54.19845  20.7%   379   44s
   371   163   66.07811   10   11   68.38185   54.19845  20.7%   362   45s
   400   167     cutoff   11        68.38185   56.25432  17.7%   363   67s
   596   225   66.78823   10   11   68.38185   56.25432  17.7%   344   80s
   795   240     cutoff   15        68.38185   60.53360  11.5%   322   94s
   841   253     cutoff   11        68.38185   60.53857  11.5%   318   95s
  1005   276     cutoff   15        68.38185   61.73613  9.72%   304  100s
  1098   280     cutoff   13        68.38185   61.99075  9.35%   296  113s
  1141   279     cutoff   12        68.38185   62.02153  9.30%   293  115s
  1295   296   65.96558   11    9   68.38185   62.40356  8.74%   278  130s
  1687   333     cutoff   12        68.38185   63.38638  7.31%   252  142s
  2000   319     cutoff   12        68.38185   64.21665  6.09%   240  150s
  2080   313   66.81566   14    7   68.38185   64.28701  5.99%   237  166s
  2284   311   65.20325   10   11   68.38185   64.79177  5.25%   230  179s
  2500   285   66.87610   15    6   68.38185   65.10850  4.79%   223  190s
  3395     0     cutoff   13        68.38185   67.38962  1.45%   195  195s

Cutting planes:
  Implied bound: 123
  MIR: 372
  Relax-and-lift: 36

Explored 3461 nodes (672426 simplex iterations) in 195.21 seconds (304.75 work units)
Thread count was 9 (of 12 available processors)

Solution count 10: 68.3818 68.4971 68.6422 ... 99.8192

Optimal solution found (tolerance 1.00e-02)
Best objective 6.838184956432e+01, best bound 6.838184956432e+01, gap 0.0000%

Gurobi 10.0.0 (win64) logging started Thu Jun 13 14:25:12 2024

Set parameter LogFile to value "C:\Users\ealvarezq\Documents\GitHub\Comillas\Models\JointResearch\05. Models\06.Benchmarking\K.Investments_per_hour\RTS24_mod2_ByStages_nc70/openStarNet_RTS24_mod2_ByStages_nc70.log"
Set parameter Method to value 2
Set parameter MIPFocus to value 1
Set parameter Presolve to value 2
Set parameter RINS to value 100
Set parameter MIPGap to value 0.01
Set parameter Threads to value 9
Set parameter TimeLimit to value 259200
Set parameter IterationLimit to value 760000000
Gurobi Optimizer version 10.0.0 build v10.0.0rc2 (win64)

CPU model: Intel(R) Core(TM) i7-8700 CPU @ 3.20GHz, instruction set [SSE2|AVX|AVX2]
Thread count: 6 physical cores, 12 logical processors, using up to 9 threads

Optimize a model with 24853 rows, 16745 columns and 61782 nonzeros
Model fingerprint: 0x9c776493
Coefficient statistics:
  Matrix range     [1e-03, 2e+03]
  Objective range  [1e+00, 1e+00]
  Bounds range     [5e-05, 2e+00]
  RHS range        [5e-05, 2e+01]
Presolve removed 20934 rows and 9707 columns
Presolve time: 0.03s
Presolved: 3919 rows, 7157 columns, 17659 nonzeros

Ordering time: 0.00s

Barrier statistics:
 AA' NZ     : 1.021e+04
 Factor NZ  : 3.862e+04 (roughly 4 MB of memory)
 Factor Ops : 5.645e+05 (less than 1 second per iteration)
 Threads    : 1

                  Objective                Residual
Iter       Primal          Dual         Primal    Dual     Compl     Time
   0   2.86422022e+06 -1.11326780e+08  1.36e+01 4.82e+03  1.04e+05     0s
   1   1.76558932e+05 -6.86812787e+07  8.56e-01 4.37e-11  1.06e+04     0s
   2   5.49135818e+04 -1.93767034e+07  2.51e-01 1.02e-10  2.29e+03     0s
   3   2.04028898e+04 -5.96323408e+06  1.84e-02 4.37e-11  5.03e+02     0s
   4   1.56990970e+04 -3.87184182e+05  8.41e-04 4.55e-11  3.22e+01     0s
   5   8.80815246e+03 -9.17313511e+04  1.30e-05 1.46e-11  8.00e+00     0s
   6   3.35928036e+03 -2.41524072e+04  5.37e-07 8.41e-12  2.19e+00     0s
   7   5.86031020e+02 -6.93272193e+03  8.90e-09 1.13e-11  5.99e-01     0s
   8   2.82420105e+02 -1.13014658e+03  1.81e-12 4.55e-12  1.12e-01     0s
   9   1.67869101e+02 -2.92785704e+02  1.96e-12 4.15e-12  3.67e-02     0s
  10   1.32588267e+02 -1.12228112e+02  1.08e-12 1.10e-11  1.95e-02     0s
  11   1.03290309e+02 -1.79532838e+01  2.85e-12 4.89e-12  9.65e-03     0s
  12   8.67754432e+01  3.25002303e+01  2.52e-12 6.93e-12  4.32e-03     0s
  13   7.37781515e+01  5.81492035e+01  3.37e-12 7.93e-12  1.24e-03     0s
  14   6.99370820e+01  6.56595023e+01  1.81e-11 6.49e-12  3.41e-04     0s
  15   6.87562563e+01  6.74487353e+01  2.18e-11 5.48e-12  1.04e-04     0s
  16   6.84861509e+01  6.81249270e+01  2.74e-11 9.85e-12  2.88e-05     0s
  17   6.84004991e+01  6.82796428e+01  2.10e-11 8.70e-12  9.62e-06     0s
  18   6.83858174e+01  6.83728112e+01  3.39e-11 7.08e-12  1.04e-06     0s
  19   6.83822402e+01  6.83809220e+01  1.20e-11 4.04e-12  1.05e-07     0s
  20   6.83818563e+01  6.83818364e+01  6.69e-12 1.64e-11  1.58e-09     0s
  21   6.83818496e+01  6.83818496e+01  7.78e-11 1.44e-11  1.58e-12     0s
  22   6.83818496e+01  6.83818496e+01  1.99e-12 7.38e-12  1.58e-15     0s

Barrier solved model in 22 iterations and 0.09 seconds (0.09 work units)
Optimal objective 6.83818496e+01

Crossover log...

     819 DPushes remaining with DInf 0.0000000e+00                 0s
       0 DPushes remaining with DInf 0.0000000e+00                 0s

     201 PPushes remaining with PInf 0.0000000e+00                 0s
       0 PPushes remaining with PInf 0.0000000e+00                 0s

  Push phase complete: Pinf 0.0000000e+00, Dinf 5.1258149e-13      0s

Iteration    Objective       Primal Inf.    Dual Inf.      Time
     208    6.8381850e+01   0.000000e+00   0.000000e+00      0s

Use crossover to convert LP symmetric solution to basic solution...
Crossover log...

       0 DPushes remaining with DInf 0.0000000e+00                 0s

     125 PPushes remaining with PInf 0.0000000e+00                 0s
       0 PPushes remaining with PInf 0.0000000e+00                 0s

  Push phase complete: Pinf 0.0000000e+00, Dinf 5.4467970e-13      0s

Iteration    Objective       Primal Inf.    Dual Inf.      Time
     346    6.8381850e+01   0.000000e+00   0.000000e+00      0s

Solved in 346 iterations and 0.12 seconds (0.10 work units)
Optimal objective  6.838184956e+01
